problems/csplib-prob049/set_partition_simple-models/01_noch_lvlPruned/O2/minion/model_1_1-24-solution000001.eprime-solution
language ESSENCE' 1.0

letting setA_Occurrence be
        [false, false, false, true, true, true, true, false, true, true, true, true, false, false, false, false, true,
         false, false, false, false, true, true, true;
             int(1..24)]
letting setB_Occurrence be
        [true, true, true, false, false, false, false, true, false, false, false, false, true, true, true, true, false,
         true, true, true, true, false, false, false;
             int(1..24)]
