problems/csplib-prob049/set_partition_simple-models/01_noch_lvlPruned/O2/minion/model_1_1-24-solution000001.solution
language Essence 1.3

letting setA be {4, 5, 6, 7, 9, 10, 11, 12, 17, 22, 23, 24}
letting setB be {1, 2, 3, 8, 13, 14, 15, 16, 18, 19, 20, 21}
